NAME: FIVE
TYPE: TSP
COMMENT: Weight matrix with 5 cities
DIMENSION: 5
EDGE_WEIGHT_TYPE: EXPLICIT
EDGE_WEIGHT_FORMAT: FULL_MATRIX
EDGE_WEIGHT_SECTION:
0 3 4 2 7
3 0 4 6 3
4 4 0 5 8
2 6 5 0 6
7 3 8 6 0
TOUR_SECTION:
1
3
2
5
4
-1